
Gurobi 11.0.3 (linux64) logging started Wed Apr 15 21:36:50 2026

Set parameter LogFile to value "tree/results/ceva/ceva_depth-2_run-2/Full MIP/LogFile_FullModel.txt"
Gurobi Optimizer version 11.0.3 build v11.0.3rc0 (linux64 - "CentOS Linux 7 (Core)")

CPU model: Intel(R) Xeon(R) Platinum 8260 CPU @ 2.40GHz, instruction set [SSE2|AVX|AVX2|AVX512]
Thread count: 96 physical cores, 192 logical processors, using up to 32 threads

Optimize a model with 36513 rows, 31271 columns and 553681 nonzeros
Model fingerprint: 0xd0ef7def
Model has 5184 general constraints
Variable types: 15658 continuous, 15613 integer (15613 binary)
Coefficient statistics:
  Matrix range     [8e-04, 1e+04]
  Objective range  [8e-04, 1e+04]
  Bounds range     [1e+00, 1e+03]
  RHS range        [1e-04, 1e+03]

User MIP start produced solution with objective -63599.3 (0.24s)
Loaded user MIP start with objective -63599.3

Presolve added 5180 rows and 10368 columns
Presolve time: 0.89s
Presolved: 41693 rows, 41639 columns, 574409 nonzeros
Presolved model has 10368 SOS constraint(s)
Variable types: 15658 continuous, 25981 integer (25981 binary)

Deterministic concurrent LP optimizer: primal simplex, dual simplex, and barrier
Showing barrier log only...

Root relaxation presolved: 36509 rows, 36455 columns, 564041 nonzeros

Root barrier log...

Ordering time: 0.04s

Barrier statistics:
 Dense cols : 48
 AA' NZ     : 5.470e+05
 Factor NZ  : 1.261e+06 (roughly 40 MB of memory)
 Factor Ops : 4.372e+07 (less than 1 second per iteration)
 Threads    : 30

                  Objective                Residual
Iter       Primal          Dual         Primal    Dual     Compl     Time
   0  -1.04831893e+05  5.69030303e+09  1.50e+04 1.97e-14  1.06e+06     2s
   1  -5.75441521e+04  4.97565063e+09  2.87e+03 9.09e-13  3.25e+05     2s
   2  -3.50741675e+04  2.59453522e+09  2.87e+02 6.02e-10  4.80e+04     2s
   3  -1.77592792e+04  6.22791244e+08  2.59e+01 7.39e-13  7.32e+03     2s
   4  -1.81535280e+03  7.70584286e+07  1.68e+00 3.29e-11  8.12e+02     3s
   5  -1.81016417e+02  8.22155809e+06  1.67e-01 1.30e-10  8.37e+01     3s
   6  -1.75818409e+01  8.31284791e+05  1.68e-02 1.01e-11  8.41e+00     3s
   7  -1.22438997e+00  8.94615233e+04  1.75e-03 1.28e-12  9.04e-01     3s
   8   5.15416042e-01  1.63265309e+04  2.58e-04 1.19e-13  1.65e-01     3s
   9   9.42299664e-01  1.84891058e+03  2.56e-05 1.74e-14  1.87e-02     3s
  10   9.94185137e-01  1.88364763e+02  2.54e-06 2.19e-15  1.89e-03     3s
  11   9.99418353e-01  1.97386918e+01  2.51e-07 1.42e-14  1.89e-04     3s
  12   9.99941835e-01  2.87388507e+00  2.51e-08 3.41e-17  1.89e-05     3s
  13   9.99994183e-01  1.18739231e+00  2.49e-09 4.46e-18  1.89e-06     4s
  14   9.99999418e-01  1.01873923e+00  2.49e-10 6.94e-18  1.89e-07     4s
  15   9.99999942e-01  1.00187396e+00  2.47e-11 6.94e-18  1.89e-08     4s
  16   9.99999994e-01  1.00018740e+00  2.50e-12 7.19e-21  1.89e-09     4s
  17   9.99999999e-01  1.00001874e+00  3.13e-13 6.94e-18  1.89e-10     4s
  18   1.00000000e+00  1.00000187e+00  8.53e-14 1.42e-14  1.89e-11     4s
  19   1.00000000e+00  1.00000019e+00  8.53e-14 2.68e-20  1.89e-12     4s
  20   1.00000000e+00  1.00000002e+00  6.39e-14 3.47e-18  1.89e-13     5s

Barrier solved model in 20 iterations and 4.51 seconds (2.20 work units)
Optimal objective 1.00000000e+00

Concurrent spin time: 0.00s

Solved with barrier

Root relaxation: objective 1.000000e+00, 5325 iterations, 3.40 seconds (1.80 work units)
Total elapsed time = 5.25s (DegenMoves)

    Nodes    |    Current Node    |     Objective Bounds      |     Work
 Expl Unexpl |  Obj  Depth IntInf | Incumbent    BestBd   Gap | It/Node Time

     0     0    1.00000    0 5186 -63599.257    1.00000   100%     -    5s
H    0     0                    -63599.25694    1.00000   100%     -   52s
     0     2    1.00000    0 5186 -63599.257    1.00000   100%     -   52s
     1     4    1.00000    1 5186 -63599.257    1.00000   100%   328   62s
     3     8    1.00000    2 6095 -63599.257    1.00000   100%   566   90s
    31    64    1.00000    5 6054 -63599.257    1.00000   100%   488   97s
H   42    64                       0.5200617    1.00000  92.3%   364   97s
H   95   128                       0.5293210    1.00000  88.9%   181  153s
H   98   128                       0.5385802    1.00000  85.7%   185  153s
H   99   128                       0.5401235    1.00000  85.1%   186  153s
H  103   128                       0.5424383    1.00000  84.4%   196  153s
H  107   128                       0.5478395    1.00000  82.5%   200  153s
   159   192    1.00000    7 5521    0.54784    1.00000  82.5%   185  230s
H  169   192                       0.5532407    1.00000  80.8%   175  230s
H  191   224                       0.5540123    1.00000  80.5%   158  372s
H  192   224                       0.5547840    1.00000  80.3%   157  372s
   223   256    1.00000    8 5628    0.55478    1.00000  80.3%   146 1363s
   255   357    1.00000    9 5784    0.55478    1.00000  80.3%   131 1422s
   356  1059    1.00000    9 5624    0.55478    1.00000  80.3%   126 1539s
  1058  5603    1.00000   20 5152    0.55478    1.00000  80.3%  83.2 1676s
  5602  8803    1.00000   91 5078    0.55478    1.00000  80.3%  44.0 1755s
  8802 12566    1.00000  138 5056    0.55478    1.00000  80.3%  40.8 1853s
 12565 13288    1.00000  171 4999    0.55478    1.00000  80.3%  39.5 1946s
 13287 16082    1.00000  189 4990    0.55478    1.00000  80.3%  38.5 2025s
 16082 16083    1.00000  314    2    0.55478    1.00000  80.3%  38.4 2117s
 16084 16084    1.00000   95  178    0.55478    1.00000  80.3%  38.4 2134s
 16085 16085    1.00000  150  178    0.55478    1.00000  80.3%  38.4 2226s
 16086 16089    1.00000   10 5186    0.55478    1.00000  80.3%  39.4 2248s
 16088 16092    1.00000   11 5170    0.55478    1.00000  80.3%  39.4 2251s
 16100 16112    1.00000   13 5415    0.55478    1.00000  80.3%  39.8 2263s
 16148 16160    1.00000   15 5369    0.55478    1.00000  80.3%  40.2 2266s
 16180 16181    1.00000   15 5413    0.55478    1.00000  80.3%  40.2 2274s
 16212 16203    1.00000   16 5198    0.55478    1.00000  80.3%  40.3 2278s
 16244 16224    1.00000   16 5368    0.55478    1.00000  80.3%  41.2 2419s
 16276 16269    1.00000   17 5205    0.55478    1.00000  80.3%  41.3 2436s
 16332 16283    1.00000   17 5197    0.55478    1.00000  80.3%  42.3 3285s
 16364 16460    1.00000   18 5202    0.55478    1.00000  80.3%  42.4 3301s
 16552 17006    1.00000   20 5200    0.55478    1.00000  80.3%  43.6 3371s
 17161 18037    1.00000   30 5173    0.55478    1.00000  80.3%  45.7 3471s
 18395 21322    1.00000   83 5144    0.55478    1.00000  80.3%  54.3 3600s

Explored 22091 nodes (1536546 simplex iterations) in 3600.33 seconds (7070.36 work units)
Thread count was 32 (of 192 available processors)

Solution count 10: 0.554784 0.554012 0.553241 ... -63599.3

Time limit reached
Best objective 5.547839506173e-01, best bound 1.000000000000e+00, gap 80.2503%

User-callback calls 1634417, time in user-callback 10.04 sec
